c nIsolatedPIs 0
c maxPI 16
p cnf 67 154
c gate 17 8 -16 0
8 -17 0
-16 -17 0
-8 16 17 0
c gate 18 7 -15 0
7 -18 0
-15 -18 0
-7 15 18 0
c gate 19 -6 14 0
-6 -19 0
14 -19 0
6 -14 19 0
c gate 20 6 -14 0
6 -20 0
-14 -20 0
-6 14 20 0
c gate 21 5 -13 0
5 -21 0
-13 -21 0
-5 13 21 0
c gate 22 -20 -21 0
-20 -22 0
-21 -22 0
20 21 22 0
c gate 23 -19 -22 0
-19 -23 0
-22 -23 0
19 22 23 0
c gate 24 -18 -23 0
-18 -24 0
-23 -24 0
18 23 24 0
c gate 25 -8 16 0
-8 -25 0
16 -25 0
8 -16 25 0
c gate 26 -7 15 0
-7 -26 0
15 -26 0
7 -15 26 0
c gate 27 -25 -26 0
-25 -27 0
-26 -27 0
25 26 27 0
c gate 28 -24 27 0
-24 -28 0
27 -28 0
24 -27 28 0
c gate 29 -17 -28 0
-17 -29 0
-28 -29 0
17 28 29 0
c gate 30 -4 12 0
-4 -30 0
12 -30 0
4 -12 30 0
c gate 31 4 -12 0
4 -31 0
-12 -31 0
-4 12 31 0
c gate 32 -3 11 0
-3 -32 0
11 -32 0
3 -11 32 0
c gate 33 3 -11 0
3 -33 0
-11 -33 0
-3 11 33 0
c gate 34 -2 10 0
-2 -34 0
10 -34 0
2 -10 34 0
c gate 35 2 -10 0
2 -35 0
-10 -35 0
-2 10 35 0
c gate 36 1 -9 0
1 -36 0
-9 -36 0
-1 9 36 0
c gate 37 -35 -36 0
-35 -37 0
-36 -37 0
35 36 37 0
c gate 38 -34 -37 0
-34 -38 0
-37 -38 0
34 37 38 0
c gate 39 -33 -38 0
-33 -39 0
-38 -39 0
33 38 39 0
c gate 40 -32 -39 0
-32 -40 0
-39 -40 0
32 39 40 0
c gate 41 -31 -40 0
-31 -41 0
-40 -41 0
31 40 41 0
c gate 42 -30 -41 0
-30 -42 0
-41 -42 0
30 41 42 0
c gate 43 -5 13 0
-5 -43 0
13 -43 0
5 -13 43 0
c gate 44 -19 -43 0
-19 -44 0
-43 -44 0
19 43 44 0
c gate 45 22 44 0
22 -45 0
44 -45 0
-22 -44 45 0
c gate 46 27 45 0
27 -46 0
45 -46 0
-27 -45 46 0
c gate 47 29 46 0
29 -47 0
46 -47 0
-29 -46 47 0
c gate 48 42 47 0
42 -48 0
47 -48 0
-42 -47 48 0
c gate 49 29 -48 0
29 -49 0
-48 -49 0
-29 48 49 0
c gate 50 -42 45 0
-42 -50 0
45 -50 0
42 -45 50 0
c gate 51 -32 -33 0
-32 -51 0
-33 -51 0
32 33 51 0
c gate 52 -1 9 0
-1 -52 0
9 -52 0
1 -9 52 0
c gate 53 -34 -52 0
-34 -53 0
-52 -53 0
34 52 53 0
c gate 54 -35 -53 0
-35 -54 0
-53 -54 0
35 53 54 0
c gate 55 51 54 0
51 -55 0
54 -55 0
-51 -54 55 0
c gate 56 -32 -55 0
-32 -56 0
-55 -56 0
32 55 56 0
c gate 57 -30 56 0
-30 -57 0
56 -57 0
30 -56 57 0
c gate 58 50 -57 0
50 -58 0
-57 -58 0
-50 57 58 0
c gate 59 -20 -44 0
-20 -59 0
-44 -59 0
20 44 59 0
c gate 60 -26 -59 0
-26 -60 0
-59 -60 0
26 59 60 0
c gate 61 -58 60 0
-58 -61 0
60 -61 0
58 -60 61 0
c gate 62 -49 -61 0
-49 -62 0
-61 -62 0
49 61 62 0
c gate 63 -50 60 0
-50 -63 0
60 -63 0
50 -60 63 0
c gate 64 49 63 0
49 -64 0
63 -64 0
-49 -63 64 0
c gate 65 -62 -64 0
-62 -65 0
-64 -65 0
62 64 65 0
c gate 66 -18 25 0
-18 -66 0
25 -66 0
18 -25 66 0
c gate 67 -65 66 0
-65 -67 0
66 -67 0
65 -66 67 0
c PO
67 0
